0 0 0 0
0 1 0 0
0 2 1 0
0 3 0 0
0 4 0 2
0 5 0 2
0 6 0 4
0 7 0 2
0 8 1 2
0 9 2 2
0 10 0 7
0 11 0 3
0 12 2 2
0 13 0 2
0 14 1 10
0 15 0 4
0 16 2 12
0 17 0 9
0 18 0 3
0 19 0 9
0 20 0 11
0 21 0 13
0 22 0 15
0 23 2 5
0 24 2 10
0 25 1 10
0 26 0 16
0 27 0 16
0 28 1 18
0 29 0 21
0 30 0 22
0 31 0 23
